(set-info :smt-lib-version 2.6)
(set-logic AUFLIA)
;synthesis
(declare-fun f0_c0_10 () Int)
(declare-fun f0_c0_9 () Int)
(declare-fun f0_c0_8 () Int)
(declare-fun f0_c0_7 () Int)
(declare-fun f0_c0_6 () Int)
(declare-fun f0_c0_5 () Int)
(declare-fun f0_c0_4 () Int)
(declare-fun f0_c0_3 () Int)
(declare-fun f0_c0_2 () Int)
(declare-fun f0_c0_1 () Int)
(declare-fun f0_c0_0 () Int)
(assert (let ((a!1 (and (<= f0_c0_0 1)
                (>= f0_c0_0 (- 1))
                (<= f0_c0_1 1)
                (>= f0_c0_1 (- 1))
                (<= f0_c0_2 1)
                (>= f0_c0_2 (- 1))
                (<= f0_c0_3 1)
                (>= f0_c0_3 (- 1))
                (<= f0_c0_4 1)
                (>= f0_c0_4 (- 1))
                (<= f0_c0_5 1)
                (>= f0_c0_5 (- 1))
                (<= f0_c0_6 1)
                (>= f0_c0_6 (- 1))
                (<= f0_c0_7 1)
                (>= f0_c0_7 (- 1))
                (<= f0_c0_8 1)
                (>= f0_c0_8 (- 1))
                (<= f0_c0_9 1)
                (>= f0_c0_9 (- 1))
                (<= f0_c0_10 1)
                (>= f0_c0_10 (- 1))))
      (a!2 (ite (>= (+ f0_c0_0
                       (* f0_c0_1 0)
                       (* f0_c0_2 0)
                       (* f0_c0_3 0)
                       (* f0_c0_4 0)
                       (* f0_c0_5 0)
                       (* f0_c0_6 0)
                       (* f0_c0_7 0)
                       (* f0_c0_8 0)
                       (* f0_c0_9 0)
                       (* f0_c0_10 0))
                    0)
                true
                false))
      (a!4 (and (= 0 0) (= 0 0) (= 0 0) (= 0 0) (= 0 0) (= 0 0)))
      (a!6 (and (<= 0 0) (not (= 0 (+ 0 0))) (= 0 0) (= 0 0) (= 0 0))))
(let ((a!3 (or (not (and (= 0 0) (= 0 0) (= 0 0) (>= 0 0) (= 0 0) (= 0 0))) a!2))
      (a!5 (or a!4
               a!4
               (and (= 0 0)
                    (= 0 0)
                    (= 0 0)
                    (not (<= 0 0))
                    (= 0 (+ 1 0))
                    (= 0 (+ (- 1) 0))
                    (= 0 0)
                    (= 0 0)
                    (= 0 0))
               (and (= 0 0)
                    (= 0 0)
                    (not (<= 0 0))
                    (= 0 (+ 1 0))
                    (= 0 (+ (- 1) 0))
                    (= 0 0)
                    (= 0 0)
                    (= 0 0)
                    (= 0 0)))))
(let ((a!7 (and a!3 (or (not (and a!5 a!2)) a!2) (or (not a!2) (not a!6)))))
  (and true
       (or false
           (= f0_c0_1 1)
           (= f0_c0_1 (- 1))
           (= f0_c0_2 1)
           (= f0_c0_2 (- 1))
           (= f0_c0_3 1)
           (= f0_c0_3 (- 1))
           (= f0_c0_4 1)
           (= f0_c0_4 (- 1))
           (= f0_c0_5 1)
           (= f0_c0_5 (- 1))
           (= f0_c0_6 1)
           (= f0_c0_6 (- 1))
           (= f0_c0_7 1)
           (= f0_c0_7 (- 1))
           (= f0_c0_8 1)
           (= f0_c0_8 (- 1))
           (= f0_c0_9 1)
           (= f0_c0_9 (- 1))
           (= f0_c0_10 1)
           (= f0_c0_10 (- 1))
           (and true
                (= f0_c0_1 0)
                (= f0_c0_2 0)
                (= f0_c0_3 0)
                (= f0_c0_4 0)
                (= f0_c0_5 0)
                (= f0_c0_6 0)
                (= f0_c0_7 0)
                (= f0_c0_8 0)
                (= f0_c0_9 0)
                (= f0_c0_10 0)))
       a!1
       a!1
       a!7
       a!7
       a!7
       a!7
       a!7
       a!7
       a!7
       a!7
       a!7
       a!7
       a!7
       a!7
       a!7
       a!7
       a!7
       a!7
       a!7
       a!7
       a!7
       a!7
       a!7
       a!7
       a!7
       a!7
       a!7
       a!7
       a!7
       a!7
       a!7
       a!7
       a!7
       a!7
       a!7
       a!7
       a!7
       a!7
       a!7
       a!7
       a!7
       a!7
       a!7
       a!7
       a!7
       a!7
       a!7
       a!7
       a!7
       a!7
       a!7
       a!7
       a!7
       a!7
       a!7
       a!7
       a!7
       a!7
       a!7
       a!7
       a!7
       a!7
       a!7
       a!7
       a!7
       a!7
       a!7
       a!7
       a!7
       a!7
       a!7
       a!7
       a!7
       a!7
       a!7
       a!7
       a!7
       a!7
       a!7
       a!7
       a!7
       a!7
       a!7
       a!7
       a!7
       a!7
       a!7
       a!7
       a!7
       a!7
       a!7
       a!7
       a!7
       a!7
       a!7
       a!7
       a!7
       a!7
       a!7
       a!7
       a!7
       a!7
       a!7
       a!7
       a!7
       a!7
       a!7
       a!7
       a!7
       a!7
       a!7
       a!7
       a!7
       a!7
       a!7
       a!7
       a!7
       a!7
       a!7
       a!7
       a!7
       a!7
       a!7
       a!7
       a!7
       a!7
       a!7
       a!7
       a!7
       a!7
       a!7
       a!7
       a!7
       a!7
       a!7
       a!7
       a!7
       a!7
       a!7
       a!7
       a!7
       a!7
       a!7
       a!7
       a!7
       a!7
       a!7
       a!7
       a!7
       a!7
       a!7
       a!7
       a!7
       a!7
       a!7
       a!7
       a!7
       a!7
       a!7
       a!7
       a!7
       a!7
       a!7
       a!7
       a!7
       a!7
       a!7
       a!7
       a!7
       a!7
       a!7
       a!7
       a!7
       a!7
       a!7
       a!7
       a!7
       a!7
       a!7
       a!7
       a!7
       a!7
       a!7
       a!7
       a!7
       a!7
       a!7
       a!7
       a!7
       a!7
       a!7
       a!7
       a!7
       a!7
       a!7
       a!7
       a!7
       a!7
       a!7
       a!7
       a!7
       a!7
       a!7
       a!7
       a!7
       a!7
       a!7
       a!7
       a!7
       a!7
       a!7
       a!7
       a!7
       a!7
       a!7
       a!7
       a!7
       a!7
       a!7
       a!7
       a!7
       a!7
       a!7
       a!7
       a!7
       a!7
       a!7
       a!7
       a!7
       a!7
       a!7
       a!7
       a!7
       a!7
       a!7
       a!7
       a!7
       a!7
       a!7
       a!7
       a!7
       a!7
       a!7
       a!7
       a!7
       a!7
       a!7
       a!7
       a!7
       a!7
       a!7
       a!7
       a!7
       a!7
       a!7
       a!7
       a!7
       a!7
       a!7
       a!7
       a!7
       a!7
       a!7
       a!7
       a!7
       a!7
       a!7
       a!7
       a!7
       a!7
       a!7
       a!7
       a!7
       a!7
       a!7
       a!7
       a!7
       a!7
       a!7
       a!7
       a!7
       a!7
       a!7
       a!7
       a!7
       a!7
       a!7
       a!7
       a!7
       a!7
       a!7
       a!7
       a!7
       a!7
       a!7
       a!7
       a!7
       a!7
       a!7
       a!7
       a!7
       a!7
       a!7
       a!7
       a!7
       a!7
       a!7
       a!7
       a!7
       a!7
       a!7
       a!7
       a!7
       a!7
       a!7
       a!7
       a!7
       a!7
       a!7
       a!7
       a!7
       a!7
       a!7
       a!7
       a!7
       a!7
       a!7
       a!7
       a!7
       a!7
       a!7
       a!7
       a!7
       a!7
       a!7
       a!7
       a!7
       a!7
       a!7
       a!7
       a!7
       a!7
       a!7
       a!7
       a!7
       a!7
       a!7
       a!7
       a!7
       a!7
       a!7
       a!7
       a!7
       a!7
       a!7
       a!7
       a!7
       a!7
       a!7
       a!7
       a!7
       a!7
       a!7
       a!7
       a!7
       a!7
       a!7
       a!7
       a!7
       a!7
       a!7
       a!7
       a!7
       a!7
       a!7
       a!7
       a!7
       a!7
       a!7
       a!7
       a!7
       a!7
       a!7
       a!7
       a!7
       a!7
       a!7
       a!7
       a!7
       a!7
       a!7
       a!7
       a!7
       a!7
       a!7
       a!7
       a!7
       a!7
       a!7
       a!7
       a!7
       a!7
       a!7
       a!7
       a!7
       a!7
       a!7
       a!7
       a!7
       a!7
       a!7
       a!7
       a!7
       a!7
       a!7
       a!7
       a!7
       a!7
       a!7
       a!7
       a!7
       a!7
       a!7
       a!7
       a!7
       a!7
       a!7
       a!7
       a!7
       a!7
       a!7
       a!7
       a!7
       a!7
       a!7
       a!7
       a!7
       a!7
       a!7
       a!7
       a!7
       a!7
       a!7
       a!7
       a!7
       a!7
       a!7
       a!7
       a!7
       a!7
       a!7
       a!7
       a!7
       a!7
       a!7
       a!7
       a!7
       a!7
       a!7
       a!7
       a!7
       a!7
       a!7
       a!7
       a!7
       a!7
       a!7
       a!7
       a!7
       a!7
       a!7
       a!7
       a!7
       a!7
       a!7
       a!7
       a!7
       a!7
       a!7
       a!7
       a!7
       a!7
       a!7
       a!7
       a!7
       a!7
       a!7
       a!7
       a!7
       a!7
       a!7
       a!7
       a!7
       a!7
       a!7
       a!7
       a!7
       a!7
       a!7
       a!7
       a!7
       a!7
       a!7
       a!7
       a!7
       a!7
       a!7
       a!7
       a!7
       a!7
       a!7
       a!7
       a!7
       a!7
       a!7
       a!7
       a!7
       a!7
       a!7
       a!7
       a!7
       a!7
       a!7
       a!7
       a!7
       a!7
       a!7
       a!7
       a!7
       a!7
       a!7
       a!7
       a!7
       a!7
       a!7
       a!7
       a!7
       a!7
       a!7
       a!7
       a!7
       a!7
       a!7
       a!7
       a!7
       a!7
       a!7
       a!7
       a!7
       a!7
       a!7
       a!7
       a!7
       a!7
       a!7
       a!7
       a!7
       a!7
       a!7
       a!7
       a!7
       a!7
       a!7
       a!7
       a!7
       a!7
       a!7
       a!7
       a!7
       a!7
       a!7
       a!7
       a!7
       a!7
       a!7
       a!7
       a!7
       a!7
       a!7
       a!7
       a!7
       a!7
       a!7
       a!7
       a!7
       a!7
       a!7
       a!7
       a!7
       a!7
       a!7
       a!7
       a!7
       a!7
       a!7
       a!7
       a!7
       a!7
       a!7
       a!7
       a!7
       a!7
       a!7
       a!7
       a!7
       a!7
       a!7
       a!7
       a!7
       a!7
       a!7
       a!7
       a!7
       a!7
       a!7
       a!7
       a!7
       a!7
       a!7
       a!7
       a!7
       a!7
       a!7
       a!7
       a!7
       a!7
       a!7
       a!7
       a!7
       a!7
       a!7
       a!7
       a!7
       a!7
       a!7
       a!7
       a!7
       a!7
       a!7
       a!7
       a!7
       a!7
       a!7
       a!7
       a!7
       a!7
       a!7
       a!7
       a!7
       a!7
       a!7
       a!7
       a!7
       a!7
       a!7
       a!7
       a!7
       a!7
       a!7
       a!7
       a!7
       a!7
       a!7
       a!7
       a!7
       a!7
       a!7
       a!7
       a!7
       a!7
       a!7
       a!7
       a!7
       a!7
       a!7
       a!7
       a!7
       a!7
       a!7
       a!7
       a!7
       a!7
       a!7
       a!7
       a!7
       a!7
       a!7
       a!7
       a!7
       a!7
       a!7
       a!7
       a!7
       a!7
       a!7
       a!7
       a!7
       a!7
       a!7
       a!7
       a!7
       a!7
       a!7
       a!7
       a!7
       a!7
       a!7
       a!7
       a!7
       a!7
       a!7
       a!7
       a!7
       a!7
       a!7
       a!7
       a!7
       a!7
       a!7
       a!7
       a!7
       a!7
       a!7
       a!7
       a!7
       a!7
       a!7
       a!7
       a!7
       a!7
       a!7
       a!7
       a!7
       a!7
       a!7
       a!7
       a!7
       a!7
       a!7
       a!7
       a!7
       a!7
       a!7
       a!7
       a!7
       a!7
       a!7
       a!7
       a!7
       a!7
       a!7
       a!7
       a!7
       a!7
       a!7
       a!7
       a!7
       a!7
       a!7
       a!7
       a!7
       a!7
       a!7
       a!7
       a!7
       a!7
       a!7
       a!7
       a!7
       a!7
       a!7
       a!7
       a!7
       a!7
       a!7
       a!7
       a!7
       a!7
       a!7
       a!7
       a!7
       a!7
       a!7
       a!7
       a!7
       a!7
       a!7
       a!7
       a!7
       a!7
       a!7
       a!7
       a!7
       a!7
       a!7
       a!7
       a!7
       a!7
       a!7
       a!7
       a!7
       a!7
       a!7
       a!7
       a!7
       a!7
       a!7
       a!7
       a!7
       a!7
       a!7
       a!7
       a!7
       a!7
       a!7
       a!7
       a!7
       a!7
       a!7
       a!7
       a!7
       a!7
       a!7
       a!7
       a!7
       a!7
       a!7
       a!7
       a!7
       a!7
       a!7
       a!7
       a!7
       a!7
       a!7
       a!7
       a!7
       a!7
       a!7
       a!7
       a!7
       a!7
       a!7
       a!7
       a!7
       a!7
       a!7
       a!7
       a!7
       a!7
       a!7
       a!7
       a!7
       a!7
       a!7
       a!7
       a!7
       a!7
       a!7
       a!7
       a!7
       a!7
       a!7
       a!7
       a!7
       a!7
       a!7
       a!7
       a!7
       a!7
       a!7
       a!7
       a!7
       a!7
       a!7
       a!7
       a!7
       a!7
       a!7
       a!7
       a!7
       a!7
       a!7
       a!7
       a!7
       a!7
       a!7
       a!7
       a!7
       a!7
       a!7
       a!7
       a!7
       a!7
       a!7
       a!7
       a!7
       a!7
       a!7
       a!7
       a!7
       a!7
       a!7
       a!7
       a!7
       a!7
       a!7
       a!7
       a!7
       a!7
       a!7
       a!7
       a!7
       a!7
       a!7
       a!7
       a!7
       a!7
       a!7
       a!7
       a!7
       a!7
       a!7
       a!7
       a!7
       a!7
       a!7
       a!7
       a!7
       a!7
       a!7
       a!7
       a!7
       a!7
       a!7
       a!7
       a!7
       a!7
       a!7
       a!7
       a!7
       a!7
       a!7
       a!7
       a!7
       a!7
       a!7
       a!7
       a!7
       a!7
       a!7
       a!7
       a!7
       a!7
       a!7
       a!7
       a!7
       a!7
       a!7
       a!7
       a!7
       a!7
       a!7
       a!7
       a!7
       a!7
       a!7
       a!7
       a!7
       a!7
       a!7
       a!7
       a!7
       a!7
       a!7
       a!7
       a!7
       a!7
       a!7
       a!7
       a!7
       a!7
       a!7
       a!7
       a!7
       a!7
       a!7
       a!7
       a!7
       a!7
       a!7
       a!7
       a!7
       a!7
       a!7
       a!7
       a!7
       a!7
       a!7
       a!7
       a!7
       a!7
       a!7
       a!7
       a!7
       a!7
       a!7
       a!7
       a!7
       a!7
       a!7
       a!7
       a!7
       a!7
       a!7
       a!7
       a!7
       a!7
       a!7
       a!7
       a!7
       a!7
       a!7
       a!7
       a!7
       a!7
       a!7
       a!7
       a!7
       a!7
       a!7
       a!7
       a!7
       a!7
       a!7
       a!7
       a!7
       a!7
       a!7
       a!7
       a!7
       a!7
       a!7
       a!7
       a!7
       a!7
       a!7
       a!7
       a!7
       a!7
       a!7
       a!7
       a!7
       a!7
       a!7
       a!7
       a!7
       a!7
       a!7
       a!7
       a!7
       a!7
       a!7
       a!7
       a!7
       a!7
       a!7
       a!7
       a!7
       a!7
       a!7
       a!7
       a!7
       a!7
       a!7
       a!7
       a!7
       a!7
       a!7
       a!7
       a!7
       a!7
       a!7
       a!7
       a!7
       a!7
       a!7
       a!7
       a!7
       a!7
       a!7
       a!7
       a!7
       a!7
       a!7
       a!7
       a!7
       a!7
       a!7
       a!7
       a!7
       a!7
       a!7
       a!7
       a!7
       a!7
       a!7
       a!7
       a!7
       a!7
       a!7
       a!7
       a!7
       a!7
       a!7
       a!7
       a!7
       a!7
       a!7
       a!7
       a!7
       a!7
       a!7
       a!7
       a!7
       a!7
       a!7
       a!7
       a!7
       a!7
       a!7
       a!7
       a!7
       a!7
       a!7
       a!7
       a!7
       a!7
       a!7
       a!7
       a!7
       a!7
       a!7
       a!7
       a!7
       a!7
       a!7
       a!7
       a!7
       a!7
       a!7
       a!7
       a!7
       a!7
       a!7
       a!7
       a!7
       a!7
       a!7
       a!7
       a!7
       a!7
       a!7
       a!7
       a!7
       a!7
       a!7
       a!7
       a!7
       a!7
       a!7
       a!7
       a!7
       a!7
       a!7
       a!7
       a!7
       a!7
       a!7
       a!7
       a!7
       a!7
       a!7
       a!7
       a!7
       a!7
       a!7
       a!7
       a!7
       a!7
       a!7
       a!7
       a!7
       a!7
       a!7
       a!7
       a!7
       a!7
       a!7
       a!7
       a!7
       a!7
       a!7
       a!7
       a!7
       a!7
       a!7
       a!7
       a!7
       a!7
       a!7
       a!7
       a!7
       a!7
       a!7
       a!7
       a!7
       a!7
       a!7
       a!7
       a!7
       a!7
       a!7
       a!7
       a!7
       a!7
       a!7
       a!7
       a!7
       a!7
       a!7
       a!7
       a!7
       a!7
       a!7
       a!7
       a!7
       a!7
       a!7
       a!7
       a!7
       a!7
       a!7
       a!7
       a!7
       a!7
       a!7
       a!7
       a!7
       a!7
       a!7
       a!7
       a!7
       a!7
       a!7
       a!7
       a!7
       a!7
       a!7
       a!7
       a!7
       a!7
       a!7
       a!7
       a!7
       a!7
       a!7
       a!7
       a!7
       a!7
       a!7
       a!7
       a!7
       a!7
       a!7
       a!7
       a!7
       a!7
       a!7
       a!7
       a!7
       a!7
       a!7
       a!7
       a!7
       a!7
       a!7
       a!7
       a!7
       a!7
       a!7
       a!7
       a!7
       a!7
       a!7
       a!7
       a!7
       a!7
       a!7
       a!7
       a!7
       a!7
       a!7
       a!7
       a!7
       a!7
       a!7
       a!7
       a!7
       a!7
       a!7
       a!7
       a!7
       a!7
       a!7
       a!7
       a!7
       a!7
       a!7
       a!7
       a!7
       a!7
       a!7
       a!7
       a!7
       a!7
       a!7
       a!7
       a!7
       a!7
       a!7
       a!7
       a!7
       a!7
       a!7
       a!7
       a!7
       a!7
       a!7
       a!7
       a!7
       a!7
       a!7
       a!7
       a!7
       a!7
       a!7
       a!7
       a!7
       a!7
       a!7
       a!7
       a!7
       a!7
       a!7
       a!7
       a!7
       a!7
       a!7
       a!7
       a!7
       a!7
       a!7
       a!7
       a!7
       a!7
       a!7
       a!7
       a!7
       a!7
       a!7
       a!7
       a!7
       a!7
       a!7
       a!7
       a!7
       a!7
       a!7
       a!7
       a!7
       a!7
       a!7
       a!7
       a!7
       a!7
       a!7
       a!7
       a!7
       a!7
       a!7
       a!7
       a!7
       a!7
       a!7
       a!7
       a!7
       a!7
       a!7
       a!7
       a!7
       a!7
       a!7
       a!7
       a!7
       a!7
       a!7
       a!7
       a!7
       a!7
       a!7
       a!7
       a!7
       a!7
       a!7
       a!7
       a!7
       a!7
       a!7
       a!7
       a!7
       a!7
       a!7
       a!7
       a!7
       a!7
       a!7
       a!7
       a!7
       a!7
       a!7
       a!7
       a!7
       a!7
       a!7
       a!7
       a!7
       a!7
       a!7
       a!7
       a!7
       a!7
       a!7
       a!7
       a!7
       a!7
       a!7
       a!7
       a!7
       a!7
       a!7
       a!7
       a!7
       a!7
       a!7
       a!7
       a!7
       a!7
       a!7
       a!7
       a!7
       a!7
       a!7
       a!7
       a!7
       a!7
       a!7
       a!7
       a!7
       a!7
       a!7
       a!7
       a!7
       a!7
       a!7
       a!7
       a!7
       a!7
       a!7
       a!7
       a!7
       a!7
       a!7
       a!7
       a!7
       a!7
       a!7
       a!7
       a!7
       a!7
       a!7
       a!7
       a!7
       a!7
       a!7
       a!7
       a!7
       a!7
       a!7
       a!7
       a!7
       a!7
       a!7
       a!7
       a!7
       a!7
       a!7
       a!7
       a!7
       a!7
       a!7
       a!7
       a!7
       a!7
       a!7
       a!7
       a!7
       a!7
       a!7
       a!7
       a!7
       a!7
       a!7
       a!7
       a!7
       a!7
       a!7
       a!7
       a!7
       a!7
       a!7
       a!7
       a!7
       a!7
       a!7
       a!7
       a!7
       a!7
       a!7
       a!7
       a!7
       a!7
       a!7
       a!7
       a!7
       a!7
       a!7
       a!7
       a!7
       a!7
       a!7
       a!7
       a!7
       a!7
       a!7
       a!7
       a!7
       a!7
       a!7
       a!7
       a!7
       a!7
       a!7
       a!7
       a!7
       a!7
       a!7
       a!7
       a!7
       a!7
       a!7
       a!7
       a!7
       a!7
       a!7
       a!7
       a!7
       a!7
       a!7
       a!7
       a!7
       a!7
       a!7
       a!7
       a!7
       a!7
       a!7
       a!7
       a!7
       a!7
       a!7
       a!7
       a!7
       a!7
       a!7
       a!7
       a!7
       a!7
       a!7
       a!7
       a!7
       a!7
       a!7
       a!7
       a!7
       a!7
       a!7
       a!7
       a!7
       a!7
       a!7
       a!7
       a!7
       a!7
       a!7
       a!7
       a!7
       a!7
       a!7
       a!7
       a!7
       a!7
       a!7
       a!7
       a!7
       a!7
       a!7
       a!7
       a!7
       a!7
       a!7
       a!7
       a!7
       a!7
       a!7
       a!7
       a!7
       a!7
       a!7
       a!7
       a!7
       a!7
       a!7
       a!7
       a!7
       a!7
       a!7
       a!7
       a!7
       a!7
       a!7
       a!7
       a!7
       a!7
       a!7
       a!7
       a!7
       a!7
       a!7
       a!7
       a!7
       a!7
       a!7
       a!7
       a!7
       a!7
       a!7
       a!7
       a!7
       a!7
       a!7
       a!7
       a!7
       a!7
       a!7
       a!7
       a!7
       a!7
       a!7
       a!7
       a!7
       a!7
       a!7
       a!7
       a!7
       a!7
       a!7
       a!7
       a!7
       a!7
       a!7
       a!7
       a!7
       a!7
       a!7
       a!7
       a!7
       a!7
       a!7
       a!7
       a!7
       a!7
       a!7
       a!7
       a!7
       a!7
       a!7
       a!7
       a!7
       a!7
       a!7
       a!7
       a!7
       a!7
       a!7
       a!7
       a!7
       a!7
       a!7
       a!7
       a!7
       a!7
       a!7
       a!7
       a!7
       a!7
       a!7
       a!7
       a!7
       a!7
       a!7
       a!7
       a!7
       a!7
       a!7
       a!7
       a!7
       a!7
       a!7
       a!7
       a!7
       a!7
       a!7
       a!7
       a!7
       a!7
       a!7
       a!7
       a!7
       a!7
       a!7
       a!7
       a!7
       a!7
       a!7
       a!7
       a!7
       a!7
       a!7
       a!7
       a!7
       a!7
       a!7
       a!7
       a!7
       a!7
       a!7
       a!7
       a!7
       a!7
       a!7
       a!7
       a!7
       a!7
       a!7
       a!7
       a!7
       a!7
       a!7
       a!7
       a!7
       a!7
       a!7
       a!7
       a!7
       a!7
       a!7
       a!7
       a!7
       a!7
       a!7
       a!7
       a!7
       a!7
       a!7
       a!7
       a!7
       a!7
       a!7
       a!7
       a!7
       a!7
       a!7
       a!7
       a!7
       a!7
       a!7
       a!7
       a!7
       a!7
       a!7
       a!7
       a!7
       a!7
       a!7
       a!7
       a!7
       a!7
       a!7
       a!7
       a!7
       a!7
       a!7
       a!7
       a!7
       a!7
       a!7
       a!7
       a!7
       a!7
       a!7
       a!7
       a!7
       a!7
       a!7
       a!7
       a!7
       a!7
       a!7
       a!7
       a!7
       a!7
       a!7
       a!7
       a!7
       a!7
       a!7
       a!7
       a!7
       a!7
       a!7
       a!7
       a!7
       a!7
       a!7
       a!7
       a!7
       a!7
       a!7
       a!7
       a!7
       a!7
       a!7
       a!7
       a!7
       a!7
       a!7
       a!7
       a!7
       a!7
       a!7
       a!7
       a!7
       a!7
       a!7
       a!7
       a!7
       a!7
       a!7
       a!7
       a!7
       a!7
       a!7
       a!7
       a!7
       a!7
       a!7
       a!7
       a!7
       a!7
       a!7
       a!7
       a!7
       a!7
       a!7
       a!7
       a!7
       a!7
       a!7
       a!7
       a!7
       a!7
       a!7
       a!7
       a!7
       a!7
       a!7
       a!7
       a!7
       a!7
       a!7
       a!7
       a!7
       a!7
       a!7
       a!7
       a!7
       a!7
       a!7
       a!7
       a!7
       a!7
       a!7
       a!7
       a!7
       a!7
       a!7
       a!7
       a!7
       a!7
       a!7
       a!7
       a!7
       a!7
       a!7
       a!7
       a!7
       a!7
       a!7
       a!7
       a!7
       a!7
       a!7
       a!7
       a!7
       a!7
       a!7
       a!7
       a!7
       a!7
       a!7
       a!7
       a!7
       a!7
       a!7
       a!7
       a!7
       a!7
       a!7
       a!7
       a!7
       a!7
       a!7
       a!7
       a!7
       a!7
       a!7
       a!7
       a!7
       a!7
       a!7
       a!7
       a!7
       a!7
       a!7
       a!7
       a!7
       a!7
       a!7
       a!7
       a!7
       a!7
       a!7
       a!7
       a!7
       a!7
       a!7
       a!7
       a!7
       a!7
       a!7
       a!7
       a!7
       a!7
       a!7
       a!7
       a!7
       a!7
       a!7
       a!7
       a!7
       a!7
       a!7
       a!7
       a!7
       a!7
       a!7
       a!7
       a!7
       a!7
       a!7
       a!7
       a!7
       a!7
       a!7
       a!7
       a!7
       a!7
       a!7
       a!7
       a!7
       a!7
       a!7
       a!7
       a!7
       a!7
       a!7
       a!7
       a!7
       a!7
       a!7
       a!7
       a!7
       a!7
       a!7
       a!7
       a!7
       a!7
       a!7
       a!7
       a!7
       a!7
       a!7
       a!7
       a!7
       a!7
       a!7
       a!7
       a!7
       a!7
       a!7
       a!7
       a!7
       a!7
       a!7
       a!7
       a!7
       a!7
       a!7
       a!7
       a!7
       a!7
       a!7
       a!7
       a!7
       a!7
       a!7
       a!7
       a!7
       a!7
       a!7
       a!7
       a!7
       a!7
       a!7
       a!7
       a!7
       a!7
       a!7
       a!7
       a!7
       a!7
       a!7
       a!7
       a!7
       a!7
       a!7
       a!7
       a!7
       a!7
       a!7
       a!7
       a!7
       a!7
       a!7
       a!7
       a!7
       a!7
       a!7
       a!7
       a!7
       a!7
       a!7
       a!7
       a!7
       a!7
       a!7
       a!7
       a!7
       a!7
       a!7
       a!7
       a!7
       a!7
       a!7
       a!7
       a!7
       a!7
       a!7
       a!7
       a!7
       a!7
       a!7
       a!7
       a!7
       a!7
       a!7
       a!7
       a!7
       a!7
       a!7
       a!7
       a!7
       a!7
       a!7
       a!7
       a!7
       a!7
       a!7
       a!7
       a!7
       a!7
       a!7
       a!7
       a!7
       a!7
       a!7
       a!7
       a!7
       a!7
       a!7
       a!7
       a!7
       a!7
       a!7
       a!7
       a!7
       a!7
       a!7
       a!7
       a!7
       a!7
       a!7
       a!7
       a!7
       a!7
       a!7
       a!7
       a!7
       a!7
       a!7
       a!7
       a!7
       a!7
       a!7
       a!7
       a!7
       a!7
       a!7
       a!7
       a!7
       a!7
       a!7
       a!7
       a!7
       a!7
       a!7
       a!7
       a!7
       a!7
       a!7
       a!7
       a!7
       a!7
       a!7
       a!7
       a!7
       a!7
       a!7
       a!7
       a!7
       a!7
       a!7
       a!7
       a!7
       a!7
       a!7
       a!7
       a!7
       a!7
       a!7
       a!7
       a!7
       a!7
       a!7
       a!7
       a!7
       a!7
       a!7
       a!7
       a!7
       a!7
       a!7
       a!7
       a!7
       a!7
       a!7
       a!7
       a!7
       a!7
       a!7
       a!7
       a!7
       a!7
       a!7
       a!7
       a!7
       a!7
       a!7
       a!7
       a!7
       a!7
       a!7
       a!7
       a!7
       a!7
       a!7
       a!7
       a!7
       a!7
       a!7
       a!7
       a!7
       a!7
       a!7
       a!7
       a!7
       a!7
       a!7
       a!7
       a!7
       a!7
       a!7
       a!7
       a!7
       a!7
       a!7
       a!7
       a!7
       a!7
       a!7
       a!7
       a!7
       a!7
       a!7
       a!7
       a!7
       a!7
       a!7
       a!7
       a!7
       a!7
       a!7
       a!7
       a!7
       a!7
       a!7
       a!7
       a!7
       a!7
       a!7
       a!7
       a!7
       a!7
       a!7
       a!7
       a!7
       a!7
       a!7
       a!7
       a!7
       a!7
       a!7
       a!7
       a!7
       a!7
       a!7
       a!7
       a!7
       a!7
       a!7
       a!7
       a!7
       a!7
       a!7
       a!7
       a!7
       a!7
       a!7
       a!7
       a!7
       a!7
       a!7
       a!7
       a!7
       a!7
       a!7
       a!7
       a!7
       a!7
       a!7
       a!7
       a!7
       a!7
       a!7
       a!7
       a!7
       a!7
       a!7
       a!7
       a!7
       a!7
       a!7
       a!7
       a!7
       a!7
       a!7
       a!7
       a!7
       a!7
       a!7
       a!7
       a!7
       a!7
       a!7
       a!7
       a!7
       a!7
       a!7
       a!7
       a!7
       a!7
       a!7
       a!7
       a!7
       a!7
       a!7
       a!7
       a!7
       a!7
       a!7
       a!7
       a!7
       a!7
       a!7
       a!7
       a!7
       a!7
       a!7
       a!7
       a!7
       a!7
       a!7
       a!7
       a!7
       a!7
       a!7
       a!7
       a!7
       a!7
       a!7
       a!7
       a!7
       a!7
       a!7
       a!7
       a!7
       a!7
       a!7
       a!7
       a!7
       a!7
       a!7
       a!7
       a!7
       a!7
       a!7
       a!7
       a!7
       a!7
       a!7
       a!7
       a!7
       a!7
       a!7
       a!7
       a!7
       a!7
       a!7
       a!7
       a!7
       a!7
       a!7
       a!7
       a!7
       a!7
       a!7
       a!7
       a!7
       a!7
       a!7
       a!7
       a!7
       a!7
       a!7
       a!7
       a!7
       a!7
       a!7
       a!7
       a!7
       a!7
       a!7
       a!7
       a!7
       a!7
       a!7
       a!7
       a!7
       a!7
       a!7
       a!7
       a!7
       a!7
       a!7
       a!7
       a!7
       a!7
       a!7
       a!7
       a!7
       a!7
       a!7
       a!7
       a!7
       a!7
       a!7
       a!7
       a!7
       a!7
       a!7
       a!7
       a!7
       a!7
       a!7
       a!7
       a!7
       a!7
       a!7
       a!7
       a!7
       a!7
       a!7
       a!7
       a!7
       a!7
       a!7
       a!7
       a!7
       a!7
       a!7
       a!7
       a!7
       a!7
       a!7
       a!7
       a!7
       a!7
       a!7
       a!7
       a!7
       a!7
       a!7
       a!7
       a!7
       a!7
       a!7
       a!7
       a!7
       a!7
       a!7
       a!7
       a!7
       a!7
       a!7
       a!7
       a!7
       a!7
       a!7
       a!7
       a!7
       a!7
       a!7
       a!7
       a!7
       a!7
       a!7
       a!7
       a!7
       a!7
       a!7
       a!7
       a!7
       a!7
       a!7
       a!7
       a!7
       a!7
       a!7
       a!7
       a!7
       a!7
       a!7
       a!7
       a!7
       a!7
       a!7
       a!7
       a!7
       a!7
       a!7
       a!7
       a!7
       a!7
       a!7
       a!7
       a!7
       a!7
       a!7
       a!7
       a!7
       a!7
       a!7
       a!7
       a!7
       a!7
       a!7
       a!7
       a!7
       a!7
       a!7
       a!7
       a!7
       a!7
       a!7
       a!7
       a!7
       a!7
       a!7
       a!7
       a!7
       a!7
       a!7
       a!7
       a!7
       a!7
       a!7
       a!7
       a!7
       a!7
       a!7
       a!7
       a!7
       a!7
       a!7
       a!7
       a!7
       a!7
       a!7
       a!7
       a!7
       a!7
       a!7
       a!7
       a!7
       a!7
       a!7
       a!7
       a!7
       a!7
       a!7
       a!7
       a!7
       a!7
       a!7
       a!7
       a!7
       a!7
       a!7
       a!7
       a!7
       a!7
       a!7
       a!7
       a!7
       a!7
       a!7
       a!7
       a!7
       a!7
       a!7
       a!7
       a!7
       a!7
       a!7
       a!7
       a!7
       a!7
       a!7
       a!7
       a!7
       a!7
       a!7
       a!7
       a!7
       a!7
       a!7
       a!7
       a!7
       a!7
       a!7
       a!7
       a!7
       a!7
       a!7
       a!7
       a!7
       a!7
       a!7
       a!7
       a!7
       a!7
       a!7
       a!7
       a!7
       a!7
       a!7
       a!7
       a!7
       a!7
       a!7
       a!7
       a!7
       a!7
       a!7
       a!7
       a!7
       a!7
       a!7
       a!7
       a!7
       a!7
       a!7
       a!7
       a!7
       a!7
       a!7
       a!7
       a!7
       a!7
       a!7
       a!7
       a!7
       a!7
       a!7
       a!7
       a!7
       a!7
       a!7
       a!7
       a!7
       a!7
       a!7
       a!7
       a!7
       a!7
       a!7
       a!7
       a!7
       a!7
       a!7
       a!7
       a!7
       a!7
       a!7
       a!7
       a!7
       a!7
       a!7
       a!7
       a!7
       a!7
       a!7
       a!7
       a!7
       a!7
       a!7
       a!7
       a!7
       a!7
       a!7
       a!7
       a!7
       a!7
       a!7
       a!7
       a!7
       a!7
       a!7
       a!7
       a!7
       a!7
       a!7
       a!7
       a!7
       a!7
       a!7
       a!7
       a!7
       a!7
       a!7
       a!7
       a!7
       a!7
       a!7
       a!7
       a!7
       a!7
       a!7
       a!7
       a!7
       a!7
       a!7
       a!7
       a!7
       a!7
       a!7
       a!7
       a!7
       a!7
       a!7
       a!7
       a!7
       a!7
       a!7
       a!7
       a!7
       a!7
       a!7
       a!7
       a!7
       a!7
       a!7
       a!7
       a!7
       a!7
       a!7
       a!7
       a!7
       a!7
       a!7
       a!7
       a!7
       a!7
       a!7
       a!7
       a!7
       a!7
       a!7
       a!7
       a!7
       a!7
       a!7
       a!7
       a!7
       a!7
       a!7
       a!7
       a!7
       a!7
       a!7
       a!7
       a!7
       a!7
       a!7
       a!7
       a!7
       a!7
       a!7
       a!7
       a!7
       a!7
       a!7
       a!7
       a!7
       a!7
       a!7
       a!7
       a!7
       a!7
       a!7
       a!7
       a!7
       a!7
       a!7
       a!7
       a!7
       a!7
       a!7
       a!7
       a!7
       a!7
       a!7
       a!7
       a!7
       a!7
       a!7
       a!7
       a!7
       a!7
       a!7
       a!7
       a!7
       a!7
       a!7
       a!7
       a!7
       a!7
       a!7
       a!7
       a!7
       a!7
       a!7
       a!7
       a!7
       a!7
       a!7
       a!7
       a!7
       a!7
       a!7
       a!7
       a!7
       a!7
       a!7
       a!7
       a!7
       a!7
       a!7
       a!7
       a!7
       a!7
       a!7
       a!7
       a!7
       a!7
       a!7
       a!7
       a!7
       a!7
       a!7
       a!7
       a!7
       a!7
       a!7
       a!7
       a!7
       a!7
       a!7
       a!7
       a!7
       a!7
       a!7
       a!7
       a!7
       a!7
       a!7
       a!7
       a!7
       a!7
       a!7
       a!7
       a!7
       a!7
       a!7
       a!7
       a!7
       a!7
       a!7
       a!7
       a!7
       a!7
       a!7
       a!7
       a!7
       a!7
       a!7
       a!7
       a!7
       a!7
       a!7
       a!7
       a!7
       a!7
       a!7
       a!7
       a!7
       a!7
       a!7
       a!7
       a!7
       a!7
       a!7
       a!7
       a!7
       a!7
       a!7
       a!7
       a!7
       a!7
       a!7
       a!7
       a!7
       a!7
       a!7
       a!7
       a!7
       a!7
       a!7
       a!7
       a!7
       a!7
       a!7
       a!7
       a!7
       a!7
       a!7
       a!7
       a!7
       a!7
       a!7
       a!7
       a!7
       a!7
       a!7
       a!7
       a!7
       a!7
       a!7
       a!7
       a!7
       a!7
       a!7
       a!7
       a!7
       a!7
       a!7
       a!7
       a!7
       a!7
       a!7
       a!7
       a!7
       a!7
       a!7
       a!7
       a!7
       a!7
       a!7
       a!7
       a!7
       a!7
       a!7
       a!7
       a!7
       a!7
       a!7
       a!7
       a!7
       a!7
       a!7
       a!7
       a!7
       a!7
       a!7
       a!7
       a!7
       a!7
       a!7
       a!7
       a!7
       a!7
       a!7
       a!7
       a!7
       a!7
       a!7
       a!7
       a!7
       a!7
       a!7
       a!7
       a!7
       a!7
       a!7
       a!7
       a!7
       a!7
       a!7
       a!7
       a!7
       a!7
       a!7
       a!7
       a!7
       a!7
       a!7
       a!7
       a!7
       a!7
       a!7
       a!7
       a!7
       a!7
       a!7
       a!7
       a!7
       a!7
       a!7
       a!7
       a!7
       a!7
       a!7
       a!7
       a!7
       a!7
       a!7
       a!7
       a!7
       a!7
       a!7
       a!7
       a!7
       a!7
       a!7
       a!7
       a!7
       a!7
       a!7
       a!7
       a!7
       a!7
       a!7
       a!7
       a!7
       a!7
       a!7
       a!7
       a!7
       a!7
       a!7
       a!7
       a!7
       a!7
       a!7
       a!7
       a!7
       a!7
       a!7
       a!7
       a!7
       a!7
       a!7
       a!7
       a!7
       a!7
       a!7
       a!7
       a!7
       a!7
       a!7
       a!7
       a!7
       a!7
       a!7
       a!7
       a!7
       a!7
       a!7
       a!7
       a!7
       a!7
       a!7
       a!7
       a!7
       a!7
       a!7
       a!7
       a!7
       a!7
       a!7
       a!7
       a!7
       a!7
       a!7
       a!7
       a!7
       a!7
       a!7
       a!7
       a!7
       a!7
       a!7
       a!7
       a!7
       a!7
       a!7)))))
(check-sat)
